language ESSENCE' 1.0

letting fixed be 
[
    [0,2,0,5,8,0,0,3,0],
    [3,5,0,0,0,0,0,8,4],
    [0,8,6,7,0,0,0,2,0],
    [0,4,8,0,9,0,1,5,6],
    [5,0,0,6,0,8,0,4,0],
    [9,6,3,0,5,0,2,7,8],
    [0,9,0,0,6,5,8,1,0],
    [6,0,0,8,0,0,0,9,2],
    [8,3,0,0,0,0,0,6,0]
]